Read MPS format model from file dat/rmp/4node_8192_10.mps
Reading time = 0.25 seconds
: 8252 rows, 24720 columns, 722372 nonzeros
Gurobi Optimizer version 9.0.0 build v9.0.0rc2 (linux64)
Optimize a model with 8252 rows, 24720 columns and 722372 nonzeros
Model fingerprint: 0x3e01909c
Coefficient statistics:
  Matrix range     [7e-04, 2e+01]
  Objective range  [2e+00, 1e+04]
  Bounds range     [0e+00, 0e+00]
  RHS range        [1e+00, 8e+01]
Ordering time: 0.01s

Barrier statistics:
 AA' NZ     : 3.548e+05
 Factor NZ  : 4.443e+05 (roughly 17 MBytes of memory)
 Factor Ops : 2.766e+07 (less than 1 second per iteration)
 Threads    : 1

                  Objective                Residual
Iter       Primal          Dual         Primal    Dual     Compl     Time
   0   2.51798665e+07  0.00000000e+00  4.49e+04 2.40e+02  5.66e+04     0s
   1   1.36467139e+06 -3.16359602e+07  2.27e+03 1.78e+03  4.57e+03     0s
   2   8.49542117e+05 -2.89083961e+07  1.26e+03 1.50e+03  3.07e+03     0s
   3   3.05629355e+05 -2.08682647e+07  2.84e+02 8.20e+02  1.43e+03     0s
   4   1.85978430e+05 -8.69878513e+06  4.89e+00 2.61e+02  4.94e+02     0s
   5   1.60828057e+05 -5.19760279e+05  4.17e-08 1.65e+01  3.57e+01     0s
   6   1.12658047e+05 -2.53233476e+05  2.40e-08 8.54e+00  1.87e+01     0s
   7   8.20324786e+04 -1.60221839e+05  2.33e-08 5.87e+00  1.24e+01     0s
   8   3.34416604e+04 -3.86985639e+04  1.33e-08 1.46e+00  3.51e+00     1s
   9   7.37531585e+03 -1.48451479e+04  3.36e-09 4.51e-01  1.06e+00     1s
  10   3.40984517e+03 -4.71490265e+03  1.83e-09 7.56e-02  3.54e-01     1s
  11   2.99466308e+02 -3.53941843e+03  1.33e-09 3.87e-02  1.68e-01     1s
  12   3.28320149e+02 -2.70269326e+03  1.12e-09 2.32e-02  1.30e-01     1s
  13  -1.45721837e+01 -1.48345051e+03  8.04e-10 4.31e-03  6.09e-02     1s
  14   1.70884305e+01 -1.36035801e+03  9.36e-10 3.71e-03  5.70e-02     1s
  15  -2.12316477e+02 -4.77054892e+02  1.96e-09 2.84e-04  1.08e-02     1s
  16  -2.42636466e+02 -4.64170251e+02  2.11e-09 2.27e-04  9.06e-03     1s
  17  -2.78202024e+02 -4.09058337e+02  4.98e-09 5.36e-05  5.32e-03     1s
  18  -3.10629435e+02 -4.39735483e+02  2.09e-08 3.37e-05  5.24e-03     1s
  19  -3.22769425e+02 -4.00875101e+02  1.55e-08 1.29e-05  3.17e-03     1s
  20  -3.31342437e+02 -3.85913469e+02  4.10e-08 8.22e-06  2.21e-03     1s
  21  -3.35831475e+02 -3.78435182e+02  3.62e-08 6.07e-06  1.73e-03     1s
  22  -3.37142664e+02 -3.72856833e+02  2.85e-08 2.99e-06  1.45e-03     1s
  23  -3.40661723e+02 -3.72524501e+02  1.96e-08 2.70e-06  1.29e-03     1s
  24  -3.45448571e+02 -3.72268707e+02  2.36e-08 2.57e-06  1.09e-03     1s
  25  -3.53267237e+02 -3.68201980e+02  2.46e-08 7.51e-07  6.05e-04     1s
  26  -3.57512797e+02 -3.66492875e+02  4.82e-08 4.60e-07  3.64e-04     1s
  27  -3.58999144e+02 -3.63916871e+02  3.52e-08 4.29e-08  1.99e-04     1s
  28  -3.60340842e+02 -3.63677107e+02  4.77e-07 2.65e-08  1.35e-04     1s
  29  -3.61837212e+02 -3.63380284e+02  7.07e-07 1.05e-08  6.25e-05     1s
  30  -3.62222260e+02 -3.63157737e+02  4.86e-07 1.39e-09  3.79e-05     1s
  31  -3.62973378e+02 -3.63110369e+02  7.48e-07 1.30e-10  5.54e-06     2s
  32  -3.62973847e+02 -3.63101166e+02  1.22e-06 3.24e-11  5.15e-06     2s
  33  -3.62973921e+02 -3.63099567e+02  1.59e-06 1.85e-11  5.08e-06     2s
  34  -3.62974411e+02 -3.63097498e+02  3.46e-06 1.46e-11  4.98e-06     2s
  35  -3.62976359e+02 -3.63096791e+02  6.33e-06 1.46e-11  4.87e-06     2s
  36  -3.62978949e+02 -3.63097239e+02  1.17e-05 1.02e-10  4.79e-06     2s
  37  -3.62980507e+02 -3.63096837e+02  1.62e-05 5.16e-11  4.70e-06     2s
  38  -3.62981073e+02 -3.63096722e+02  2.39e-05 3.66e-11  4.68e-06     2s
  39  -3.62985616e+02 -3.63096725e+02  3.05e-05 1.83e-11  4.49e-06     2s
  40  -3.62992760e+02 -3.63096628e+02  4.08e-05 1.46e-11  4.17e-06     2s
  41  -3.63012154e+02 -3.63096597e+02  7.71e-05 1.46e-11  3.35e-06     2s
  42  -3.63031153e+02 -3.63096566e+02  8.41e-05 1.46e-11  2.68e-06     2s
  43  -3.63045280e+02 -3.63096521e+02  8.59e-05 2.91e-11  1.99e-06     2s
  44  -3.63069341e+02 -3.63096492e+02  1.20e-04 1.46e-11  9.95e-07     2s
  45  -3.63080474e+02 -3.63096482e+02  3.10e-04 1.46e-11  5.28e-07     2s
  46  -3.63104675e+02 -3.63096636e+02  2.98e-04 2.91e-11  4.94e-08     2s
  47  -3.63099424e+02 -3.63096415e+02  1.12e-04 2.91e-11  2.87e-09     2s
  48  -3.63102575e+02 -3.63096414e+02  1.89e-04 2.91e-11  1.79e-09     3s
  49  -3.63100828e+02 -3.63096405e+02  1.71e-04 2.91e-11  1.19e-09     3s
  50  -3.63100797e+02 -3.63096308e+02  1.68e-04 1.46e-11  1.04e-09     3s
  51  -3.63098705e+02 -3.63096311e+02  1.43e-04 1.46e-11  3.83e-10     3s
  52  -3.63096377e+02 -3.63096308e+02  1.22e-04 1.46e-11  3.23e-10     3s
  53  -3.63088397e+02 -3.63096309e+02  1.96e-04 1.46e-11  3.12e-10     3s
  54  -3.63098222e+02 -3.63096315e+02  3.44e-04 2.91e-11  1.06e-10     3s
  55  -3.63101114e+02 -3.63096294e+02  2.74e-04 1.46e-11  1.08e-10     3s
  56  -3.63103350e+02 -3.63096299e+02  2.06e-04 1.46e-11  5.05e-10     3s
  57  -3.63100587e+02 -3.63096305e+02  1.82e-04 2.91e-11  4.60e-10     3s
  58  -3.63100728e+02 -3.63096305e+02  1.61e-04 1.14e-13  4.56e-10     3s
  59  -3.63102026e+02 -3.63096305e+02  1.92e-04 1.46e-11  3.63e-10     3s
  60  -3.63099663e+02 -3.63096308e+02  1.56e-04 1.46e-11  1.81e-10     3s
  61  -3.63100076e+02 -3.63096325e+02  2.18e-04 1.46e-11  1.92e-10     3s
  62  -3.63098175e+02 -3.63096323e+02  2.77e-04 1.46e-11  5.07e-11     3s

Barrier performed 62 iterations in 3.36 seconds
Sub-optimal termination - objective -3.62222260e+02

Solve time: 3.361075998
Barrier iterations: 62
